8
2147483647 2 31 27 84 78 54 86 
2 2147483647 78 33 50 48 77 83 
31 78 2147483647 77 10 85 17 48 
27 33 77 2147483647 65 46 18 76 
84 50 10 65 2147483647 56 68 75 
78 48 85 46 56 2147483647 60 96 
54 77 17 18 68 60 2147483647 70 
86 83 48 76 75 96 70 2147483647 
